c WARNING: for repeatability, setting FPU to use double precision
d VARIABLES            21598        
d CONSTRAINTS          85514        
c ============================[ Problem Statistics ]=============================
c |                                                                             |
c |  Number of variables:         21598                                         |
c |  Number of clauses:           85514                                         |
c |  Parse time:                   0.01 s                                       |
c |                                                                             |
c ============================[ Search Statistics ]==============================
c | Conflicts |          ORIGINAL         |          LEARNT          | Progress |
c |           |    Vars  Clauses Literals |    Limit  Clauses Lit/Cl |          |
c ===============================================================================
c |       100 |   15506    68230   167414 |    25017      100    111 | 28.206 % |
c |       250 |   15506    68230   167414 |    27519      250     81 | 28.206 % |
c |       475 |   15506    68230   167414 |    30271      475     87 | 28.206 % |
c |       812 |   15506    68230   167414 |    33298      812     86 | 28.206 % |
c |      1318 |   15506    68230   167414 |    36628     1318     87 | 28.207 % |
c ===============================================================================
c restarts              : 13
c conflicts             : 1892           (9459 /sec)
c decisions             : 8584           (0.00 % random) (42917 /sec)
c propagations          : 1469942        (7349269 /sec)
c conflict literals     : 167139         (11.09 % deleted)
d RESTARTS             13
d FAILURES             1892         
d NODES                8584         
d BACKTRACKS           8584         
d PROPAGATIONS         1469942      
d NOGOODSIZE           88.34 
d MEMORY               11.00 
d TIME                 0.200012 

s SATISFIABLE
